Version identifier: 22.1.1.0 | 2022-11-28 | 9160aff4d
CPXPARAM_ClockType                               1
CPXPARAM_Read_DataCheck                          1
CPXPARAM_Threads                                 1
CPXPARAM_Simplex_Tolerances_Optimality           1.0000000000000001e-09
CPXPARAM_TimeLimit                               7200
CPXPARAM_MIP_Tolerances_AbsMIPGap                0
CPXPARAM_MIP_Tolerances_MIPGap                   0
CPXPARAM_MIP_Tolerances_Integrality              0
Tried aggregator 1 time.
MIQP Presolve eliminated 14727 rows and 9 columns.
MIQP Presolve modified 5268 coefficients.
Reduced MIQP has 30264 rows, 9991 columns, and 97906 nonzeros.
Reduced MIQP has 9491 binaries, 500 generals, 0 SOSs, and 0 indicators.
Reduced MIQP objective Q matrix has 500 nonzeros.
Presolve time = 0.12 sec. (80.17 ticks)
Probing time = 0.01 sec. (4.32 ticks)
Tried aggregator 1 time.
MIQP Presolve eliminated 1000 rows and 0 columns.
Reduced MIQP has 29264 rows, 9991 columns, and 92906 nonzeros.
Reduced MIQP has 9491 binaries, 500 generals, 0 SOSs, and 0 indicators.
Reduced MIQP objective Q matrix has 500 nonzeros.
Presolve time = 0.10 sec. (62.62 ticks)
Classifier predicts products in MIQP should be linearized.
Probing time = 0.01 sec. (4.13 ticks)
Clique table members: 16398.
MIP emphasis: balance optimality and feasibility.
MIP search method: dynamic search.
Parallel mode: none, using 1 thread.
Root relaxation solution time = 36.93 sec. (69560.80 ticks)

        Nodes                                         Cuts/
   Node  Left     Objective  IInf  Best Integer    Best Bound    ItCnt     Gap

      0     0     8000.0000  3897                   8000.0000        6         
      0     0     8000.0000  8950                  Cuts: 1056    15375         
      0     0     8000.0000  8865                  Cuts: 7229   351922         
Heuristic still looking.
Heuristic still looking.
Heuristic still looking.

Clique cuts applied:  231
Implied bound cuts applied:  2
Zero-half cuts applied:  91

Root node processing (before b&c):
  Real time             = 7200.07 sec. (3405039.98 ticks)
Sequential b&c:
  Real time             =    0.00 sec. (0.00 ticks)
                          ------------
Total (root+branch&cut) = 7200.07 sec. (3405039.98 ticks)
Solution is infeasible.

---------------------
@@@ MIP_time_limit_infeasible
Traceback (most recent call last):
  File "/scratch/scherif/DiverseSAT-journal_sup/DiverseSAT_Supplementary_Experiments/experiment-1/cplex/jobs/../solvers/CPLEX-QP-SE.py", line 118, in <module>
    print(f">>> Benchmark {os.path.basename(cnf_file)} k {k} OPT {int(prob.solution.get_objective_value())}"
  File "/users/scherif/.local/lib/python3.9/site-packages/cplex/_internal/_subinterfaces.py", line 7211, in get_objective_value
    return CPX_PROC.getobjval(self._env._e, self._cplex._lp)
  File "/users/scherif/.local/lib/python3.9/site-packages/cplex/_internal/_procedural.py", line 2055, in getobjval
    check_status(env, status)
  File "/users/scherif/.local/lib/python3.9/site-packages/cplex/_internal/_procedural.py", line 249, in __call__
    raise CplexSolverError(error_string, env, status)
cplex.exceptions.errors.CplexSolverError: CPLEX Error  1217: No solution exists.
